NAME : rnd5_20.tsp
TYPE : TSP
DIMENSION : 20
EDGE_WEIGHT_TYPE : EUC_2D
NODE_COORD_SECTION
1 218 81
2 319 573
3 492 106
4 631 411
5 566 816
6 710 844
7 248 307
8 991 501
9 175 104
10 104 156
11 201 252
12 196 885
13 448 400
14 985 226
15 333 763
16 491 87
17 52 44
18 256 709
19 13 102
20 379 194
